Problem:    
Rows:       50
Columns:    134 (134 integer, 134 binary)
Non-zeros:  1025
Status:     INTEGER OPTIMAL
Objective:  score = 43817 (MAXimum)

   No.   Row name        Activity     Lower bound   Upper bound
------ ------------    ------------- ------------- -------------
     1 index_0                    23             0               
     2 index_1                     2             0               
     3 index_2                     2             0               
     4 index_3                     1             0               
     5 index_4                     9             0               
     6 index_5                     7             0               
     7 index_6                     3             0               
     8 index_7                     4             0               
     9 index_8                     1             0               
    10 index_9                     0             0               
    11 index_10                    0             0               
    12 index_11                    0             0               
    13 index_12                    3             0               
    14 index_13                    2             0               
    15 index_14                    2             0               
    16 index_15                    4             0               
    17 index_16                    0             0               
    18 index_17                    2             0               
    19 index_18                    6             0               
    20 index_19                   17             0               
    21 index_20                    2             0               
    22 index_21                    0             0               
    23 index_22                    1             0               
    24 index_23                    8             0               
    25 index_24                    0             0               
    26 index_25                   15             0               
    27 index_26                    4             0               
    28 index_27                    0             0               
    29 index_28                    1             0               
    30 index_29                    4             0               
    31 index_30                    2             0               
    32 index_31                   10             0               
    33 index_32                    0             0               
    34 index_33                    1             0               
    35 index_34                    2             0               
    36 index_35                    8             0               
    37 index_36                   14             0               
    38 index_37                   23             0               
    39 index_38                    0             0               
    40 index_39                    7             0               
    41 index_40                    0             0               
    42 index_41                    1             0               
    43 index_42                    1             0               
    44 index_43                   14             0               
    45 index_44                    5             0               
    46 index_45                    4             0               
    47 index_46                    9             0               
    48 index_47                   12             0               
    49 length_max               4014                        5085 
    50 length_min               4014          3813               

   No. Column name       Activity     Lower bound   Upper bound
------ ------------    ------------- ------------- -------------
     1 c0           *              1             0             1 
     2 c1           *              1             0             1 
     3 c2           *              1             0             1 
     4 c3           *              1             0             1 
     5 c4           *              1             0             1 
     6 c5           *              1             0             1 
     7 c6           *              1             0             1 
     8 c7           *              1             0             1 
     9 c8           *              1             0             1 
    10 c9           *              1             0             1 
    11 c10          *              1             0             1 
    12 c11          *              1             0             1 
    13 c12          *              1             0             1 
    14 c13          *              1             0             1 
    15 c14          *              1             0             1 
    16 c15          *              1             0             1 
    17 c16          *              1             0             1 
    18 c17          *              1             0             1 
    19 c18          *              1             0             1 
    20 c19          *              1             0             1 
    21 c20          *              1             0             1 
    22 c21          *              1             0             1 
    23 c22          *              1             0             1 
    24 c23          *              1             0             1 
    25 c24          *              1             0             1 
    26 c25          *              1             0             1 
    27 c26          *              1             0             1 
    28 c27          *              1             0             1 
    29 c28          *              1             0             1 
    30 c29          *              1             0             1 
    31 c30          *              1             0             1 
    32 c31          *              1             0             1 
    33 c32          *              1             0             1 
    34 c33          *              1             0             1 
    35 c34          *              1             0             1 
    36 c35          *              1             0             1 
    37 c36          *              1             0             1 
    38 c37          *              1             0             1 
    39 c38          *              1             0             1 
    40 c39          *              1             0             1 
    41 c40          *              1             0             1 
    42 c41          *              1             0             1 
    43 c42          *              1             0             1 
    44 c43          *              1             0             1 
    45 c44          *              1             0             1 
    46 c45          *              1             0             1 
    47 c46          *              1             0             1 
    48 c47          *              1             0             1 
    49 s0           *              0             0             1 
    50 s1           *              0             0             1 
    51 s2           *              0             0             1 
    52 s3           *              1             0             1 
    53 s4           *              0             0             1 
    54 s5           *              1             0             1 
    55 s6           *              0             0             1 
    56 s7           *              0             0             1 
    57 s8           *              1             0             1 
    58 s9           *              1             0             1 
    59 s10          *              0             0             1 
    60 s11          *              0             0             1 
    61 s12          *              0             0             1 
    62 s13          *              0             0             1 
    63 s14          *              0             0             1 
    64 s15          *              0             0             1 
    65 s17          *              0             0             1 
    66 s18          *              0             0             1 
    67 s19          *              1             0             1 
    68 s20          *              0             0             1 
    69 s21          *              1             0             1 
    70 s22          *              0             0             1 
    71 s23          *              0             0             1 
    72 s24          *              0             0             1 
    73 s26          *              1             0             1 
    74 s27          *              0             0             1 
    75 s28          *              0             0             1 
    76 s29          *              0             0             1 
    77 s30          *              1             0             1 
    78 s31          *              0             0             1 
    79 s32          *              0             0             1 
    80 s33          *              0             0             1 
    81 s34          *              1             0             1 
    82 s35          *              0             0             1 
    83 s36          *              1             0             1 
    84 s37          *              0             0             1 
    85 s39          *              0             0             1 
    86 s40          *              0             0             1 
    87 s41          *              0             0             1 
    88 s42          *              1             0             1 
    89 s43          *              1             0             1 
    90 s44          *              0             0             1 
    91 s45          *              0             0             1 
    92 s46          *              1             0             1 
    93 s47          *              0             0             1 
    94 s48          *              0             0             1 
    95 s49          *              0             0             1 
    96 s50          *              0             0             1 
    97 s51          *              0             0             1 
    98 s52          *              1             0             1 
    99 s53          *              1             0             1 
   100 s54          *              1             0             1 
   101 s55          *              0             0             1 
   102 s56          *              0             0             1 
   103 s57          *              0             0             1 
   104 s58          *              1             0             1 
   105 s59          *              1             0             1 
   106 s60          *              0             0             1 
   107 s61          *              1             0             1 
   108 s62          *              0             0             1 
   109 s63          *              0             0             1 
   110 s64          *              1             0             1 
   111 s65          *              0             0             1 
   112 s66          *              0             0             1 
   113 s67          *              0             0             1 
   114 s68          *              1             0             1 
   115 s69          *              0             0             1 
   116 s70          *              1             0             1 
   117 s71          *              0             0             1 
   118 s72          *              1             0             1 
   119 s73          *              0             0             1 
   120 s74          *              0             0             1 
   121 s75          *              0             0             1 
   122 s76          *              0             0             1 
   123 s77          *              0             0             1 
   124 s78          *              0             0             1 
   125 s79          *              0             0             1 
   126 s80          *              0             0             1 
   127 s81          *              0             0             1 
   128 s82          *              0             0             1 
   129 s83          *              0             0             1 
   130 s84          *              0             0             1 
   131 s85          *              1             0             1 
   132 s16          *              0             0             1 
   133 s38          *              0             0             1 
   134 s25          *              1             0             1 

Integer feasibility conditions:

KKT.PE: max.abs.err = 0.00e+00 on row 0
        max.rel.err = 0.00e+00 on row 0
        High quality

KKT.PB: max.abs.err = 0.00e+00 on row 0
        max.rel.err = 0.00e+00 on row 0
        High quality

End of output
